============================[ Problem Statistics ]=============================|                                                                             ||  Number of variables:          4242                                         ||  Number of clauses:            9629                                         ||  Parse time:                   0.04 s                                       ||                                                                             |============================[ Search Statistics ]==============================| Conflicts |          ORIGINAL         |          LEARNT          | Progress ||           |    Vars  Clauses Literals |    Limit  Clauses Lit/Cl |          |==============================================================================================================================================================restarts              : 1conflicts             : 24             (522 /sec)decisions             : 111            (0.00 % random) (2413 /sec)propagations          : 8056           (175130 /sec)conflict literals     : 541            (95.18 % deleted)CPU time              : 0.046 sSATISFIABLE